testInterfaceWriting2.smt2
(declare-fun x ()
Int )
(declare-fun y ()
Int )
(declare-fun z ()
Int )
(assert (> x y )
)
(assert (> y z )
)
(check-sat )
(echo "model-to-constraint-start") ; used to indentify the model coverted to constraints
(echo "(x y)") ; symbols coverted to constraints
(get-model )
(echo "model-to-constraint-end") ; used to indentify the model coverted to constraints
(echo "model-to-constraint-1") ; ID of Model to constraint
(define-fun x_from_model_1 ()
Int 1 )
(define-fun y_from_model_1 ()
Int 0 )
(assert (or (not (= x x_from_model_1 )
)
(not (= y y_from_model_1 )
)
)
)
(check-sat )
(echo "model-to-constraint-start") ; used to indentify the model coverted to constraints
(echo "(x y)") ; symbols coverted to constraints
(get-model )
(echo "model-to-constraint-end") ; used to indentify the model coverted to constraints
(echo "model-to-constraint-2") ; ID of Model to constraint
(define-fun x_from_model_2 ()
Int 1 )
(define-fun y_from_model_2 ()
Int 0 )
(assert (or (not (= x x_from_model_2 )
)
(not (= y y_from_model_2 )
)
)
)
(define-fun x_from_model_2 ()
Int 0 )
(define-fun y_from_model_2 ()
Int (- 1 )
)
(assert (or (not (= x x_from_model_2 )
)
(not (= y y_from_model_2 )
)
)
)
